p tw 83 91
1 2
2 13
3 4
4 5
4 42
5 6
6 7
6 15
7 58
8 9
9 10
10 11
11 12
12 14
13 24
14 77
15 16
16 17
17 18
18 19
19 20
20 21
21 22
22 23
22 65
23 25
24 35
25 26
26 18
27 28
28 29
29 30
30 31
31 32
32 33
32 70
33 34
34 36
35 46
36 37
37 38
38 39
38 70
39 40
40 41
41 30
42 43
43 44
44 45
45 47
46 57
47 48
48 49
48 74
49 50
50 51
51 52
52 53
53 54
53 74
54 55
55 56
56 45
57 68
58 59
59 60
60 61
61 62
62 63
63 64
64 77
65 66
66 67
67 69
68 79
68 8
69 77
70 71
71 72
72 73
73 77
74 75
75 76
76 77
77 78
78 80
79 83
80 81
81 82
83 3
83 27
